param set_len = 40;
param target_sum = 10264916782;
param values := [1] 367077248 [2] 91965886 [3] 889696980 [4] 782508841 [5] 1056289028 [6] 312485256 [7] 11605347 [8] 83818501 [9] 130490924 [10] 34832843 [11] 1052921478 [12] 494338584 [13] 816700407 [14] 99048878 [15] 269869475 [16] 521612112 [17] 1057618115 [18] 958657002 [19] 430666587 [20] 387813300 [21] 363358993 [22] 740531693 [23] 983005159 [24] 747322102 [25] 390058058 [26] 964444089 [27] 529815797 [28] 43158635 [29] 489403912 [30] 803069580 [31] 389384033 [32] 875745729 [33] 489026700 [34] 643996904 [35] 184239944 [36] 847730263 [37] 889948381 [38] 657367412 [39] 243202045 [40] 280700809 ;
